Route #1: 131 99 14 16 170 166 157 173 132 134 161 74 111 113 107 33 53 154 189 140 124 187 27 15 76 40 32 61 180 153 84 18 185 70 141 98 148 167 136 183 25 66 64 188 105
Route #2: 19 57 63 13 171 110 163 128 95 112 169 78 97 143 24 12 176 5 47 101 52 71 123 177 146 186 87 152 41 181 126 54 48 174 151 137 125 86 77 22 36 38 35 109 89 104 142 159 73 34 4 168 120 172
Route #3: 37 118 31 45 149 139 72 133 129 103 46 135 92 81 145 115 144 94 50 21 68 6 2 39 30 150 147 80 85 138 28 58 43 10 102 127 44 88 165 160 182 83 29
Route #4: 106 119 49 26 117 175 11 122 82 116 60 79 17 155 7 162 20 65 114 9 91 59 96 3 90 42 130 56 8 100 62 179 55 23 164 158 69 178 121 75 93 51 67 108 156 1 184
Cost 10408.000000